0 4702
3 4678
5 4652
7 4644
13 4612
15 4598
19 4526
20 4518
60 4516
63 4514
64 4495
70 4491
96 4476
103 4451
121 4439
138 4432
149 4403
151 4394
166 4387
167 4381
184 4363
193 4360
197 4356
209 4348
213 4333
214 4328
241 4325
244 4321
261 4314
269 4303
272 4295
306 4284
309 4276
311 4265
316 4242
332 4239
333 4227
364 4226
369 4219
389 4208
414 4203
547 4202
548 4161
740 4160
748 4158
806 4142
821 4137
837 4132
1045 4131
1201 4128
1548 4119
1655 4112
1763 4111
1884 4107
2082 4101
2322 4087
2451 4085
2487 4083
2490 4077
2517 4066
2541 4062
2609 4054
3052 4050
3289 4034
3605 4031
3646 4030
3947 4023
4069 4003
8196 4000
8362 3991
8464 3982
9001 3975
9485 3972
13092 3971
14200 3968
20045 3967
20906 3958
21250 3955
33218 3953
34559 3952
120166 3950
121198 3943
121399 3942
131742 3941
132400 3939
132948 3938
133702 3934
